
Welcome to IBM(R) ILOG(R) CPLEX(R) Interactive Optimizer 22.1.1.0
  with Simplex, Mixed Integer & Barrier Optimizers
5725-A06 5725-A29 5724-Y48 5724-Y49 5724-Y54 5724-Y55 5655-Y21
Copyright IBM Corp. 1988, 2022.  All Rights Reserved.

Type 'help' for a list of available commands.
Type 'help' followed by a command name for more
information on commands.

CPLEX> Selected objective sense:  MINIMIZE
Selected objective  name:  00000000
Selected RHS        name:  RHS1
Selected bound      name:  BOUND
Problem 'ee.mps' read.
Read time = 0.03 sec. (3.14 ticks)
CPLEX> New value for time limit in seconds: 7200
CPLEX> New value for parallel optimization mode: -1
CPLEX> New value for default parallel thread count: 40
CPLEX> New value for mixed integer optimality gap tolerance: 1e-13
CPLEX> Version identifier: 22.1.1.0 | 2022-11-28 | 9160aff4d
CPXPARAM_Threads                                 40
CPXPARAM_Parallel                                -1
CPXPARAM_TimeLimit                               7200
CPXPARAM_MIP_Tolerances_MIPGap                   1e-13
Found incumbent of value 0.000000 after 0.00 sec. (0.31 ticks)
Tried aggregator 2 times.
MIP Presolve eliminated 179 rows and 2745 columns.
MIP Presolve modified 5862 coefficients.
Aggregator did 713 substitutions.
Reduced MIP has 3624 rows, 7739 columns, and 28645 nonzeros.
Reduced MIP has 7739 binaries, 0 generals, 0 SOSs, and 0 indicators.
Presolve time = 0.07 sec. (68.57 ticks)
Probing time = 0.03 sec. (5.67 ticks)
Tried aggregator 1 time.
Detecting symmetries...
Reduced MIP has 3624 rows, 7739 columns, and 28645 nonzeros.
Reduced MIP has 7739 binaries, 0 generals, 0 SOSs, and 0 indicators.
Presolve time = 0.03 sec. (21.84 ticks)
Probing time = 0.02 sec. (5.48 ticks)
Clique table members: 18552.
MIP emphasis: balance optimality and feasibility.
MIP search method: dynamic search.
Parallel mode: opportunistic, using up to 40 threads.
Root relaxation solution time = 0.09 sec. (72.10 ticks)

        Nodes                                         Cuts/
   Node  Left     Objective  IInf  Best Integer    Best Bound    ItCnt     Gap

*     0+    0                            0.0000  -1.31000e+13              --- 
*     0+    0                      -2.19000e+12  -1.31000e+13           498.17%
*     0+    0                      -5.49000e+12  -1.31000e+13           138.62%
      0     0  -1.30900e+13    57  -5.49000e+12  -1.30900e+13     1963  138.43%
*     0+    0                      -1.30900e+13  -1.30900e+13             0.00%
*     0+    0                      -1.30900e+13  -1.30900e+13             0.00%
      0     0  -1.30900e+13    90  -1.30900e+13      Cuts: 59     3229    0.00%
*     0+    0                      -1.30900e+13  -1.30900e+13             0.00%
*     0+    0                      -1.30900e+13  -1.30900e+13             0.00%
      0     0  -1.30900e+13   122  -1.30900e+13      Cuts: 40     3503    0.00%
*     0+    0                      -1.30900e+13  -1.30900e+13             0.00%
*     0+    0                      -1.30900e+13  -1.30900e+13             0.00%
      0    14        cutoff        -1.30900e+13  -1.30900e+13     5089    0.00%
Elapsed time = 2.25 sec. (975.23 ticks, tree = 0.02 MB, solutions = 10)
    543   106  -1.30900e+13   100  -1.30900e+13  -1.30900e+13    33870    0.00%
   1899   142        cutoff        -1.30900e+13  -1.30900e+13    38823    0.00%
   3202   453  -1.30900e+13    40  -1.30900e+13  -1.30900e+13    87376    0.00%
   4045   542  -1.30900e+13   252  -1.30900e+13  -1.30900e+13   105140    0.00%
   4983   828  -1.30900e+13    71  -1.30900e+13  -1.30900e+13   159409    0.00%
   6275  1044  -1.30900e+13   154  -1.30900e+13  -1.30900e+13   187020    0.00%
   7605  2445  -1.30900e+13   136  -1.30900e+13  -1.30900e+13   407281    0.00%
   8836  1501        cutoff        -1.30900e+13  -1.30900e+13   243001    0.00%
   9990  2587        cutoff        -1.30900e+13  -1.30900e+13   494525    0.00%
  12576  2491  -1.30900e+13    84  -1.30900e+13  -1.30900e+13   422181    0.00%
Elapsed time = 6.33 sec. (4077.26 ticks, tree = 37.38 MB, solutions = 10)

Performing restart 1

Repeating presolve.
Tried aggregator 3 times.
MIP Presolve eliminated 1625 rows and 3709 columns.
MIP Presolve modified 2223 coefficients.
Aggregator did 583 substitutions.
Reduced MIP has 1374 rows, 3363 columns, and 11866 nonzeros.
Reduced MIP has 3363 binaries, 0 generals, 0 SOSs, and 0 indicators.
Presolve time = 0.07 sec. (72.76 ticks)
Tried aggregator 1 time.
MIP Presolve eliminated 21 rows and 12 columns.
Reduced MIP has 1353 rows, 3348 columns, and 11814 nonzeros.
Reduced MIP has 3348 binaries, 0 generals, 0 SOSs, and 0 indicators.
Presolve time = 0.02 sec. (16.98 ticks)
Represolve time = 0.16 sec. (120.33 ticks)
  13103     0  -1.30900e+13   192  -1.30900e+13      Cuts: 28   580985    0.00%
  13103     0  -1.30900e+13   204  -1.30900e+13      Cuts: 28   581184    0.00%
  13103     0  -1.30900e+13   240  -1.30900e+13      Cuts: 27   581303    0.00%
  13103     0  -1.30900e+13   218  -1.30900e+13      Cuts: 34   581543    0.00%
  13103     0  -1.30900e+13   189  -1.30900e+13      Cuts: 35   581684    0.00%
  13103     0  -1.30900e+13   205  -1.30900e+13      Cuts: 38   581858    0.00%
  13103     0  -1.30900e+13   275  -1.30900e+13      Cuts: 37   581980    0.00%
  13103     0  -1.30900e+13   287  -1.30900e+13      Cuts: 37   582100    0.00%
  13103     0  -1.30900e+13   276  -1.30900e+13      Cuts: 43   582252    0.00%
  13103     0  -1.30900e+13   313  -1.30900e+13      Cuts: 44   582340    0.00%

Repeating presolve.
Tried aggregator 2 times.
MIP Presolve eliminated 925 rows and 2309 columns.
MIP Presolve modified 110 coefficients.
Aggregator did 65 substitutions.
Reduced MIP has 362 rows, 961 columns, and 3112 nonzeros.
Reduced MIP has 961 binaries, 0 generals, 0 SOSs, and 0 indicators.
Presolve time = 0.02 sec. (6.28 ticks)
Tried aggregator 1 time.
MIP Presolve eliminated 4 rows and 6 columns.
MIP Presolve modified 30 coefficients.
Reduced MIP has 355 rows, 954 columns, and 3080 nonzeros.
Reduced MIP has 954 binaries, 0 generals, 0 SOSs, and 0 indicators.
Presolve time = 0.00 sec. (3.14 ticks)
Represolve time = 0.06 sec. (35.34 ticks)
  13103     0  -1.30900e+13   209  -1.30900e+13      Cuts: 69   583577    0.00%
  13103     0  -1.30900e+13   200  -1.30900e+13      Cuts: 68   583719    0.00%
  13103     0  -1.30900e+13   111  -1.30900e+13      Cuts: 31   583799    0.00%
  13103     0  -1.30900e+13   166  -1.30900e+13      Cuts: 30   583857    0.00%
  13103     0  -1.30900e+13    57  -1.30900e+13      Cuts: 52   583917    0.00%

Repeating presolve.
Tried aggregator 2 times.
MIP Presolve eliminated 56 rows and 340 columns.
MIP Presolve modified 46 coefficients.
Aggregator did 26 substitutions.
Reduced MIP has 273 rows, 585 columns, and 1861 nonzeros.
Reduced MIP has 585 binaries, 0 generals, 0 SOSs, and 0 indicators.
Presolve time = 0.00 sec. (2.18 ticks)
Tried aggregator 1 time.
Reduced MIP has 273 rows, 585 columns, and 1861 nonzeros.
Reduced MIP has 585 binaries, 0 generals, 0 SOSs, and 0 indicators.
Presolve time = 0.00 sec. (1.25 ticks)
Represolve time = 0.03 sec. (19.70 ticks)
  13103     0  -1.30900e+13   119  -1.30900e+13      Cuts: 15   584709    0.00%
  13103     0  -1.30900e+13   123  -1.30900e+13      Cuts: 31   584754    0.00%
  13103     0  -1.30900e+13    74  -1.30900e+13      Cuts: 26   584802    0.00%
  13103     0        cutoff        -1.30900e+13                 584815    0.00%

GUB cover cuts applied:  1
Clique cuts applied:  44
Cover cuts applied:  128
Flow cuts applied:  1
Mixed integer rounding cuts applied:  15
Zero-half cuts applied:  72
Gomory fractional cuts applied:  5

Root node processing (before b&c):
  Real time             =    1.18 sec. (964.37 ticks)
Parallel b&c, 40 threads:
  Real time             =    6.92 sec. (5238.45 ticks)
  Sync time (average)   =    0.47 sec.
  Wait time (average)   =    0.00 sec.
                          ------------
Total (root+branch&cut) =    8.10 sec. (6202.82 ticks)

Solution pool: 10 solutions saved.

MIP - Integer optimal solution:  Objective = -1.3089999891e+13
Solution time =    8.24 sec.  Iterations = 584815  Nodes = 13103
Deterministic time = 6202.85 ticks  (752.47 ticks/sec)

CPLEX> Solution 'p11' written to file 'ee.sol'.
CPLEX> 